p cnf 200 1110
-101 -1 0
-101 27 0
-101 -35 0
-101 -88 0
-101 31 0
-101 -23 0
-101 -26 0
-101 56 0
-101 -53 0
-101 -12 0
101 1 -27 35 88 -31 23 26 -56 53 12 0
-102 4 0
-102 76 0
-102 -40 0
-102 -32 0
-102 -48 0
-102 -39 0
-102 83 0
-102 -63 0
-102 89 0
-102 29 0
102 -4 -76 40 32 48 39 -83 63 -89 -29 0
-103 55 0
-103 -46 0
-103 -57 0
-103 85 0
-103 -15 0
-103 -92 0
-103 -33 0
-103 -67 0
-103 96 0
-103 84 0
103 -55 46 57 -85 15 92 33 67 -96 -84 0
-104 57 0
-104 -69 0
-104 -53 0
-104 93 0
-104 -32 0
-104 45 0
-104 49 0
-104 92 0
-104 -98 0
-104 -25 0
104 -57 69 53 -93 32 -45 -49 -92 98 25 0
-105 -79 0
-105 97 0
-105 -92 0
-105 -74 0
-105 52 0
-105 61 0
-105 -39 0
-105 41 0
-105 -81 0
-105 5 0
105 79 -97 92 74 -52 -61 39 -41 81 -5 0
-106 -81 0
-106 -88 0
-106 20 0
-106 -29 0
-106 90 0
-106 -49 0
-106 10 0
-106 -97 0
-106 75 0
-106 -77 0
106 81 88 -20 29 -90 49 -10 97 -75 77 0
-107 100 0
-107 -51 0
-107 14 0
-107 -98 0
-107 -65 0
-107 -47 0
-107 -7 0
-107 69 0
-107 33 0
-107 25 0
107 -100 51 -14 98 65 47 7 -69 -33 -25 0
-108 36 0
-108 9 0
-108 -28 0
-108 -14 0
-108 -6 0
-108 33 0
-108 95 0
-108 -42 0
-108 4 0
-108 85 0
108 -36 -9 28 14 6 -33 -95 42 -4 -85 0
-109 -46 0
-109 99 0
-109 27 0
-109 -65 0
-109 4 0
-109 -24 0
-109 -20 0
-109 -36 0
-109 -17 0
-109 18 0
109 46 -99 -27 65 -4 24 20 36 17 -18 0
-110 -19 0
-110 34 0
-110 -14 0
-110 -98 0
-110 -47 0
-110 -13 0
-110 56 0
-110 73 0
-110 55 0
-110 -87 0
110 19 -34 14 98 47 13 -56 -73 -55 87 0
101 102 103 104 105 106 107 108 109 110 0
-111 -66 0
-111 94 0
-111 63 0
-111 -84 0
-111 -57 0
-111 -83 0
-111 81 0
-111 68 0
-111 -65 0
-111 46 0
111 66 -94 -63 84 57 83 -81 -68 65 -46 0
-112 87 0
-112 48 0
-112 58 0
-112 -75 0
-112 74 0
-112 -93 0
-112 -94 0
-112 21 0
-112 -46 0
-112 -2 0
112 -87 -48 -58 75 -74 93 94 -21 46 2 0
-113 61 0
-113 22 0
-113 -29 0
-113 -75 0
-113 -12 0
-113 89 0
-113 -3 0
-113 47 0
-113 79 0
-113 76 0
113 -61 -22 29 75 12 -89 3 -47 -79 -76 0
-114 59 0
-114 90 0
-114 -93 0
-114 1 0
-114 53 0
-114 -11 0
-114 -83 0
-114 -32 0
-114 33 0
-114 -6 0
114 -59 -90 93 -1 -53 11 83 32 -33 6 0
-115 -1 0
-115 11 0
-115 38 0
-115 -46 0
-115 79 0
-115 -76 0
-115 80 0
-115 -7 0
-115 -64 0
-115 90 0
115 1 -11 -38 46 -79 76 -80 7 64 -90 0
-116 92 0
-116 44 0
-116 -38 0
-116 68 0
-116 -55 0
-116 -94 0
-116 71 0
-116 48 0
-116 87 0
-116 56 0
116 -92 -44 38 -68 55 94 -71 -48 -87 -56 0
-117 -93 0
-117 13 0
-117 72 0
-117 -57 0
-117 -47 0
-117 41 0
-117 39 0
-117 36 0
-117 -25 0
-117 -31 0
117 93 -13 -72 57 47 -41 -39 -36 25 31 0
-118 -83 0
-118 -42 0
-118 -11 0
-118 -68 0
-118 -90 0
-118 33 0
-118 98 0
-118 50 0
-118 -75 0
-118 15 0
118 83 42 11 68 90 -33 -98 -50 75 -15 0
-119 -77 0
-119 20 0
-119 -55 0
-119 -37 0
-119 -81 0
-119 79 0
-119 87 0
-119 68 0
-119 -29 0
-119 -40 0
119 77 -20 55 37 81 -79 -87 -68 29 40 0
-120 -19 0
-120 -62 0
-120 70 0
-120 -38 0
-120 30 0
-120 -81 0
-120 92 0
-120 96 0
-120 35 0
-120 51 0
120 19 62 -70 38 -30 81 -92 -96 -35 -51 0
111 112 113 114 115 116 117 118 119 120 0
-121 83 0
-121 49 0
-121 -93 0
-121 -67 0
-121 -94 0
-121 -71 0
-121 -41 0
-121 -25 0
-121 -2 0
-121 73 0
121 -83 -49 93 67 94 71 41 25 2 -73 0
-122 72 0
-122 -41 0
-122 83 0
-122 45 0
-122 -42 0
-122 -23 0
-122 -25 0
-122 22 0
-122 -85 0
-122 14 0
122 -72 41 -83 -45 42 23 25 -22 85 -14 0
-123 -92 0
-123 -25 0
-123 -4 0
-123 41 0
-123 -56 0
-123 -27 0
-123 74 0
-123 45 0
-123 33 0
-123 28 0
123 92 25 4 -41 56 27 -74 -45 -33 -28 0
-124 -31 0
-124 -21 0
-124 80 0
-124 -40 0
-124 45 0
-124 -96 0
-124 51 0
-124 -42 0
-124 49 0
-124 -74 0
124 31 21 -80 40 -45 96 -51 42 -49 74 0
-125 81 0
-125 -12 0
-125 47 0
-125 -42 0
-125 95 0
-125 -84 0
-125 65 0
-125 -96 0
-125 100 0
-125 -85 0
125 -81 12 -47 42 -95 84 -65 96 -100 85 0
-126 -12 0
-126 80 0
-126 53 0
-126 54 0
-126 92 0
-126 -81 0
-126 -45 0
-126 69 0
-126 -83 0
-126 7 0
126 12 -80 -53 -54 -92 81 45 -69 83 -7 0
-127 -25 0
-127 49 0
-127 54 0
-127 37 0
-127 -28 0
-127 -72 0
-127 -55 0
-127 35 0
-127 92 0
-127 81 0
127 25 -49 -54 -37 28 72 55 -35 -92 -81 0
-128 -69 0
-128 97 0
-128 -99 0
-128 90 0
-128 -47 0
-128 -41 0
-128 -43 0
-128 62 0
-128 92 0
-128 -72 0
128 69 -97 99 -90 47 41 43 -62 -92 72 0
-129 -97 0
-129 37 0
-129 -92 0
-129 -57 0
-129 -29 0
-129 -43 0
-129 -77 0
-129 -7 0
-129 -40 0
-129 56 0
129 97 -37 92 57 29 43 77 7 40 -56 0
-130 98 0
-130 95 0
-130 24 0
-130 -1 0
-130 -51 0
-130 -52 0
-130 -79 0
-130 -64 0
-130 25 0
-130 -73 0
130 -98 -95 -24 1 51 52 79 64 -25 73 0
121 122 123 124 125 126 127 128 129 130 0
-131 55 0
-131 -39 0
-131 -1 0
-131 45 0
-131 -84 0
-131 3 0
-131 -79 0
-131 -50 0
-131 54 0
-131 -70 0
131 -55 39 1 -45 84 -3 79 50 -54 70 0
-132 -30 0
-132 -66 0
-132 -72 0
-132 -64 0
-132 -31 0
-132 -50 0
-132 45 0
-132 -83 0
-132 71 0
-132 68 0
132 30 66 72 64 31 50 -45 83 -71 -68 0
-133 65 0
-133 -38 0
-133 93 0
-133 -100 0
-133 72 0
-133 -50 0
-133 51 0
-133 86 0
-133 -3 0
-133 -76 0
133 -65 38 -93 100 -72 50 -51 -86 3 76 0
-134 -44 0
-134 26 0
-134 -21 0
-134 13 0
-134 4 0
-134 -66 0
-134 42 0
-134 -33 0
-134 97 0
-134 7 0
134 44 -26 21 -13 -4 66 -42 33 -97 -7 0
-135 -86 0
-135 -40 0
-135 -8 0
-135 55 0
-135 87 0
-135 -79 0
-135 -42 0
-135 44 0
-135 -90 0
-135 99 0
135 86 40 8 -55 -87 79 42 -44 90 -99 0
-136 -55 0
-136 -63 0
-136 -1 0
-136 4 0
-136 -25 0
-136 42 0
-136 68 0
-136 99 0
-136 81 0
-136 70 0
136 55 63 1 -4 25 -42 -68 -99 -81 -70 0
-137 87 0
-137 -83 0
-137 9 0
-137 -1 0
-137 -85 0
-137 -79 0
-137 44 0
-137 -52 0
-137 -39 0
-137 -55 0
137 -87 83 -9 1 85 79 -44 52 39 55 0
-138 37 0
-138 -45 0
-138 93 0
-138 -18 0
-138 63 0
-138 -42 0
-138 100 0
-138 78 0
-138 81 0
-138 68 0
138 -37 45 -93 18 -63 42 -100 -78 -81 -68 0
-139 22 0
-139 71 0
-139 -39 0
-139 45 0
-139 -100 0
-139 -14 0
-139 91 0
-139 -77 0
-139 -3 0
-139 95 0
139 -22 -71 39 -45 100 14 -91 77 3 -95 0
-140 -69 0
-140 -76 0
-140 62 0
-140 54 0
-140 -23 0
-140 30 0
-140 -36 0
-140 -34 0
-140 -65 0
-140 -29 0
140 69 76 -62 -54 23 -30 36 34 65 29 0
131 132 133 134 135 136 137 138 139 140 0
-141 89 0
-141 -26 0
-141 16 0
-141 -46 0
-141 -2 0
-141 -65 0
-141 -97 0
-141 -43 0
-141 22 0
-141 23 0
141 -89 26 -16 46 2 65 97 43 -22 -23 0
-142 -49 0
-142 -83 0
-142 -1 0
-142 -66 0
-142 36 0
-142 -77 0
-142 -72 0
-142 -58 0
-142 -79 0
-142 41 0
142 49 83 1 66 -36 77 72 58 79 -41 0
-143 -25 0
-143 11 0
-143 23 0
-143 -63 0
-143 -58 0
-143 -81 0
-143 91 0
-143 -27 0
-143 17 0
-143 86 0
143 25 -11 -23 63 58 81 -91 27 -17 -86 0
-144 69 0
-144 -20 0
-144 65 0
-144 -58 0
-144 53 0
-144 -21 0
-144 -96 0
-144 -49 0
-144 -77 0
-144 -18 0
144 -69 20 -65 58 -53 21 96 49 77 18 0
-145 62 0
-145 88 0
-145 1 0
-145 55 0
-145 -36 0
-145 -49 0
-145 -69 0
-145 74 0
-145 5 0
-145 -9 0
145 -62 -88 -1 -55 36 49 69 -74 -5 9 0
-146 70 0
-146 53 0
-146 -78 0
-146 37 0
-146 -64 0
-146 13 0
-146 -23 0
-146 6 0
-146 54 0
-146 -72 0
146 -70 -53 78 -37 64 -13 23 -6 -54 72 0
-147 -96 0
-147 -90 0
-147 71 0
-147 -44 0
-147 93 0
-147 61 0
-147 2 0
-147 45 0
-147 25 0
-147 69 0
147 96 90 -71 44 -93 -61 -2 -45 -25 -69 0
-148 -63 0
-148 59 0
-148 -17 0
-148 77 0
-148 -43 0
-148 61 0
-148 -2 0
-148 15 0
-148 -27 0
-148 62 0
148 63 -59 17 -77 43 -61 2 -15 27 -62 0
-149 -78 0
-149 -22 0
-149 -37 0
-149 -99 0
-149 -31 0
-149 87 0
-149 94 0
-149 -90 0
-149 -76 0
-149 71 0
149 78 22 37 99 31 -87 -94 90 76 -71 0
-150 -62 0
-150 -19 0
-150 -21 0
-150 -34 0
-150 66 0
-150 3 0
-150 -31 0
-150 26 0
-150 -64 0
-150 -52 0
150 62 19 21 34 -66 -3 31 -26 64 52 0
141 142 143 144 145 146 147 148 149 150 0
-151 6 0
-151 -15 0
-151 44 0
-151 78 0
-151 -21 0
-151 -25 0
-151 -72 0
-151 -53 0
-151 30 0
-151 39 0
151 -6 15 -44 -78 21 25 72 53 -30 -39 0
-152 76 0
-152 54 0
-152 45 0
-152 97 0
-152 92 0
-152 -27 0
-152 55 0
-152 -24 0
-152 -73 0
-152 -93 0
152 -76 -54 -45 -97 -92 27 -55 24 73 93 0
-153 18 0
-153 57 0
-153 13 0
-153 -91 0
-153 41 0
-153 -75 0
-153 93 0
-153 -48 0
-153 -49 0
-153 12 0
153 -18 -57 -13 91 -41 75 -93 48 49 -12 0
-154 93 0
-154 52 0
-154 29 0
-154 44 0
-154 67 0
-154 15 0
-154 14 0
-154 -68 0
-154 -100 0
-154 -60 0
154 -93 -52 -29 -44 -67 -15 -14 68 100 60 0
-155 67 0
-155 -48 0
-155 -81 0
-155 42 0
-155 -37 0
-155 8 0
-155 71 0
-155 2 0
-155 -47 0
-155 58 0
155 -67 48 81 -42 37 -8 -71 -2 47 -58 0
-156 59 0
-156 -71 0
-156 -36 0
-156 34 0
-156 -42 0
-156 4 0
-156 -63 0
-156 -12 0
-156 85 0
-156 -9 0
156 -59 71 36 -34 42 -4 63 12 -85 9 0
-157 65 0
-157 -57 0
-157 33 0
-157 14 0
-157 -99 0
-157 22 0
-157 -48 0
-157 66 0
-157 59 0
-157 -71 0
157 -65 57 -33 -14 99 -22 48 -66 -59 71 0
-158 73 0
-158 12 0
-158 -50 0
-158 -4 0
-158 -48 0
-158 29 0
-158 41 0
-158 31 0
-158 19 0
-158 79 0
158 -73 -12 50 4 48 -29 -41 -31 -19 -79 0
-159 -27 0
-159 -12 0
-159 -86 0
-159 -67 0
-159 8 0
-159 63 0
-159 51 0
-159 75 0
-159 -41 0
-159 -93 0
159 27 12 86 67 -8 -63 -51 -75 41 93 0
-160 66 0
-160 -85 0
-160 -72 0
-160 -23 0
-160 -42 0
-160 30 0
-160 12 0
-160 -20 0
-160 -9 0
-160 11 0
160 -66 85 72 23 42 -30 -12 20 9 -11 0
151 152 153 154 155 156 157 158 159 160 0
-161 -84 0
-161 -19 0
-161 55 0
-161 -79 0
-161 69 0
-161 -17 0
-161 -74 0
-161 -2 0
-161 3 0
-161 -47 0
161 84 19 -55 79 -69 17 74 2 -3 47 0
-162 -100 0
-162 -32 0
-162 -48 0
-162 -33 0
-162 -89 0
-162 63 0
-162 25 0
-162 40 0
-162 -34 0
-162 -17 0
162 100 32 48 33 89 -63 -25 -40 34 17 0
-163 6 0
-163 29 0
-163 -44 0
-163 50 0
-163 -11 0
-163 47 0
-163 21 0
-163 -97 0
-163 -59 0
-163 24 0
163 -6 -29 44 -50 11 -47 -21 97 59 -24 0
-164 -40 0
-164 75 0
-164 -37 0
-164 -93 0
-164 89 0
-164 78 0
-164 85 0
-164 76 0
-164 -41 0
-164 -67 0
164 40 -75 37 93 -89 -78 -85 -76 41 67 0
-165 91 0
-165 69 0
-165 -2 0
-165 68 0
-165 -96 0
-165 18 0
-165 52 0
-165 46 0
-165 -54 0
-165 -56 0
165 -91 -69 2 -68 96 -18 -52 -46 54 56 0
-166 25 0
-166 -47 0
-166 -96 0
-166 -24 0
-166 34 0
-166 44 0
-166 -75 0
-166 -35 0
-166 -23 0
-166 36 0
166 -25 47 96 24 -34 -44 75 35 23 -36 0
-167 57 0
-167 -89 0
-167 -82 0
-167 7 0
-167 -70 0
-167 -87 0
-167 -72 0
-167 -16 0
-167 -41 0
-167 4 0
167 -57 89 82 -7 70 87 72 16 41 -4 0
-168 38 0
-168 54 0
-168 -47 0
-168 19 0
-168 -36 0
-168 66 0
-168 59 0
-168 30 0
-168 57 0
-168 -39 0
168 -38 -54 47 -19 36 -66 -59 -30 -57 39 0
-169 14 0
-169 64 0
-169 37 0
-169 -87 0
-169 5 0
-169 -72 0
-169 -97 0
-169 -9 0
-169 22 0
-169 31 0
169 -14 -64 -37 87 -5 72 97 9 -22 -31 0
-170 6 0
-170 -65 0
-170 -70 0
-170 -42 0
-170 -93 0
-170 49 0
-170 77 0
-170 81 0
-170 -72 0
-170 -91 0
170 -6 65 70 42 93 -49 -77 -81 72 91 0
161 162 163 164 165 166 167 168 169 170 0
-171 79 0
-171 88 0
-171 60 0
-171 70 0
-171 83 0
-171 64 0
-171 -76 0
-171 -10 0
-171 35 0
-171 38 0
171 -79 -88 -60 -70 -83 -64 76 10 -35 -38 0
-172 87 0
-172 -88 0
-172 -46 0
-172 -11 0
-172 12 0
-172 -94 0
-172 -77 0
-172 79 0
-172 -14 0
-172 -53 0
172 -87 88 46 11 -12 94 77 -79 14 53 0
-173 -20 0
-173 37 0
-173 -28 0
-173 -55 0
-173 10 0
-173 -91 0
-173 73 0
-173 -62 0
-173 21 0
-173 -79 0
173 20 -37 28 55 -10 91 -73 62 -21 79 0
-174 -8 0
-174 -14 0
-174 -59 0
-174 28 0
-174 -80 0
-174 82 0
-174 78 0
-174 -48 0
-174 9 0
-174 35 0
174 8 14 59 -28 80 -82 -78 48 -9 -35 0
-175 -32 0
-175 79 0
-175 -25 0
-175 67 0
-175 47 0
-175 -22 0
-175 -91 0
-175 -34 0
-175 97 0
-175 -1 0
175 32 -79 25 -67 -47 22 91 34 -97 1 0
-176 67 0
-176 40 0
-176 24 0
-176 -57 0
-176 -19 0
-176 37 0
-176 39 0
-176 -30 0
-176 -47 0
-176 3 0
176 -67 -40 -24 57 19 -37 -39 30 47 -3 0
-177 43 0
-177 -54 0
-177 89 0
-177 35 0
-177 26 0
-177 -27 0
-177 -34 0
-177 32 0
-177 75 0
-177 -61 0
177 -43 54 -89 -35 -26 27 34 -32 -75 61 0
-178 30 0
-178 -18 0
-178 4 0
-178 -32 0
-178 -31 0
-178 91 0
-178 -62 0
-178 -10 0
-178 -47 0
-178 -65 0
178 -30 18 -4 32 31 -91 62 10 47 65 0
-179 64 0
-179 54 0
-179 57 0
-179 78 0
-179 23 0
-179 -90 0
-179 71 0
-179 73 0
-179 59 0
-179 -9 0
179 -64 -54 -57 -78 -23 90 -71 -73 -59 9 0
-180 98 0
-180 -87 0
-180 43 0
-180 29 0
-180 -88 0
-180 95 0
-180 -5 0
-180 50 0
-180 96 0
-180 28 0
180 -98 87 -43 -29 88 -95 5 -50 -96 -28 0
171 172 173 174 175 176 177 178 179 180 0
-181 67 0
-181 -28 0
-181 79 0
-181 5 0
-181 -84 0
-181 -13 0
-181 32 0
-181 89 0
-181 -3 0
-181 59 0
181 -67 28 -79 -5 84 13 -32 -89 3 -59 0
-182 89 0
-182 21 0
-182 -24 0
-182 56 0
-182 28 0
-182 65 0
-182 30 0
-182 -39 0
-182 96 0
-182 -88 0
182 -89 -21 24 -56 -28 -65 -30 39 -96 88 0
-183 31 0
-183 51 0
-183 8 0
-183 -6 0
-183 25 0
-183 29 0
-183 23 0
-183 67 0
-183 -45 0
-183 -73 0
183 -31 -51 -8 6 -25 -29 -23 -67 45 73 0
-184 -96 0
-184 -22 0
-184 -83 0
-184 -69 0
-184 -47 0
-184 -51 0
-184 16 0
-184 12 0
-184 30 0
-184 37 0
184 96 22 83 69 47 51 -16 -12 -30 -37 0
-185 -98 0
-185 -12 0
-185 73 0
-185 -83 0
-185 -75 0
-185 -76 0
-185 90 0
-185 74 0
-185 -70 0
-185 -38 0
185 98 12 -73 83 75 76 -90 -74 70 38 0
-186 -97 0
-186 49 0
-186 20 0
-186 -53 0
-186 29 0
-186 40 0
-186 59 0
-186 88 0
-186 44 0
-186 -61 0
186 97 -49 -20 53 -29 -40 -59 -88 -44 61 0
-187 86 0
-187 -81 0
-187 90 0
-187 13 0
-187 -47 0
-187 -14 0
-187 58 0
-187 91 0
-187 -83 0
-187 -63 0
187 -86 81 -90 -13 47 14 -58 -91 83 63 0
-188 -22 0
-188 55 0
-188 -73 0
-188 -61 0
-188 11 0
-188 -4 0
-188 86 0
-188 -32 0
-188 -82 0
-188 98 0
188 22 -55 73 61 -11 4 -86 32 82 -98 0
-189 45 0
-189 33 0
-189 8 0
-189 -84 0
-189 -68 0
-189 -32 0
-189 -3 0
-189 51 0
-189 -81 0
-189 11 0
189 -45 -33 -8 84 68 32 3 -51 81 -11 0
-190 -74 0
-190 -73 0
-190 38 0
-190 72 0
-190 84 0
-190 2 0
-190 25 0
-190 83 0
-190 -77 0
-190 -37 0
190 74 73 -38 -72 -84 -2 -25 -83 77 37 0
181 182 183 184 185 186 187 188 189 190 0
-191 -72 0
-191 -42 0
-191 86 0
-191 -82 0
-191 70 0
-191 -30 0
-191 -88 0
-191 1 0
-191 -14 0
-191 17 0
191 72 42 -86 82 -70 30 88 -1 14 -17 0
-192 18 0
-192 72 0
-192 -28 0
-192 -91 0
-192 20 0
-192 -45 0
-192 56 0
-192 -49 0
-192 14 0
-192 65 0
192 -18 -72 28 91 -20 45 -56 49 -14 -65 0
-193 81 0
-193 -11 0
-193 97 0
-193 82 0
-193 -80 0
-193 -14 0
-193 -2 0
-193 73 0
-193 9 0
-193 18 0
193 -81 11 -97 -82 80 14 2 -73 -9 -18 0
-194 78 0
-194 -96 0
-194 63 0
-194 -1 0
-194 2 0
-194 9 0
-194 44 0
-194 30 0
-194 92 0
-194 -89 0
194 -78 96 -63 1 -2 -9 -44 -30 -92 89 0
-195 -95 0
-195 42 0
-195 -23 0
-195 -6 0
-195 -40 0
-195 -78 0
-195 27 0
-195 -41 0
-195 71 0
-195 -82 0
195 95 -42 23 6 40 78 -27 41 -71 82 0
-196 -26 0
-196 -32 0
-196 -64 0
-196 10 0
-196 36 0
-196 -43 0
-196 -44 0
-196 -97 0
-196 -27 0
-196 -54 0
196 26 32 64 -10 -36 43 44 97 27 54 0
-197 -14 0
-197 -29 0
-197 91 0
-197 10 0
-197 -98 0
-197 68 0
-197 -67 0
-197 3 0
-197 -85 0
-197 53 0
197 14 29 -91 -10 98 -68 67 -3 85 -53 0
-198 -29 0
-198 28 0
-198 66 0
-198 39 0
-198 -97 0
-198 -82 0
-198 99 0
-198 60 0
-198 42 0
-198 47 0
198 29 -28 -66 -39 97 82 -99 -60 -42 -47 0
-199 9 0
-199 -35 0
-199 75 0
-199 -84 0
-199 47 0
-199 -94 0
-199 -91 0
-199 15 0
-199 3 0
-199 -88 0
199 -9 35 -75 84 -47 94 91 -15 -3 88 0
-200 -46 0
-200 34 0
-200 50 0
-200 24 0
-200 -25 0
-200 -57 0
-200 68 0
-200 31 0
-200 -33 0
-200 27 0
200 46 -34 -50 -24 25 57 -68 -31 33 -27 0
191 192 193 194 195 196 197 198 199 200 0
